dates = {'2022-01-25','2022-01-26','2022-01-27','2022-01-28','2022-01-29','2022-01-30','2022-01-31'};

daysOfWeek = [Tuesday,Wednesday,Thursday,Friday,Saturday,Sunday,Monday];

% For this week, how many people will be here.
numPeople = [167,164,167,164,164,164,158];

% Physical workers need 50 to 100 % more nutrients per day.
numPhysicalWorkers = [57.5,57.5,57.5,57.5,57.5,57.5,57.5];

% Males need +25% more nutrients per day.
numMen = [140,140,140,140,137,137,137];

% Num people who do not eat categories. contains = {none, meat, milk, gluten, egg, nut, seed, sugars}
numRefusals = [| 0,0,8,0,7,13,0,6 | 0,0,6,0,16,0,0,6 | 0,6,0,0,10,6,8,12 | 0,7,0,2,2,0,0,6 | 0,7,0,2,2,0,0,6 | 0,7,0,2,2,0,0,6 | 0,0,0,5,0,16,0,4 |];

